VER
4

OBJSENSE
MIN


QKDCONES
1 32
16 1 16 16 0
0 0 0 1.0
0 1 1 1.0
0 2 2 1.0
0 3 3 1.0
0 4 4 1.0
0 5 5 1.0
0 6 6 1.0
0 7 7 1.0
0 8 8 1.0
0 9 9 1.0
0 10 10 1.0
0 11 11 1.0
0 12 12 1.0
0 13 13 1.0
0 14 14 1.0
0 15 15 1.0
16 4 16 16 0
0 0 0 1.0
0 1 1 1.0
0 2 2 1.0
0 3 3 1.0
1 4 4 1.0
1 5 5 1.0
1 6 6 1.0
1 7 7 1.0
2 8 8 1.0
2 9 9 1.0
2 10 10 1.0
2 11 11 1.0
3 12 12 1.0
3 13 13 1.0
3 14 14 1.0
3 15 15 1.0

VAR
257 1
@0:HVECQKD 257

CON
3 1
L= 3

OBJACOORD
1
0 1.0

ACOORD
60
0 1 1.0
0 36 1.0
0 121 1.0
0 256 1.0
1 1 0.25
1 4 0.25
1 9 0.25
1 16 0.25
1 19 0.3535533905932738
1 25 0.25
1 26 0.3535533905932738
1 36 0.25
1 43 0.3535533905932738
1 49 0.25
1 54 0.3535533905932738
1 64 0.25
1 69 0.3535533905932738
1 79 0.3535533905932738
1 81 0.25
1 88 0.3535533905932738
1 94 0.3535533905932738
1 100 0.25
1 101 0.3535533905932738
1 111 0.3535533905932738
1 121 0.25
1 124 0.3535533905932738
1 130 0.3535533905932738
1 144 0.25
1 151 0.3535533905932738
1 157 0.3535533905932738
1 163 0.3535533905932738
1 169 0.25
1 174 0.3535533905932738
1 184 0.3535533905932738
1 186 0.3535533905932738
1 196 0.25
1 199 0.3535533905932738
1 205 0.3535533905932738
1 219 0.3535533905932738
1 225 0.25
1 226 0.3535533905932738
1 236 0.3535533905932738
1 246 0.3535533905932738
1 256 0.25
2 1 1.0
2 4 1.0
2 9 1.0
2 16 1.0
2 25 1.0
2 36 1.0
2 49 1.0
2 64 1.0
2 81 1.0
2 100 1.0
2 121 1.0
2 144 1.0
2 169 1.0
2 196 1.0
2 225 1.0
2 256 1.0

BCOORD
3
0 0.9624999999999999
1 0.9624999999999999
2 1.0
